c Created with the Wolfram Language : www.wolfram.com
c 
p edge 90 419
e 3 6
e 3 7
e 2 8
e 9 10
e 2 11
e 9 12
e 7 13
e 9 13
e 12 14
e 3 15
e 14 15
e 11 17
e 15 18
e 6 19
e 7 19
e 9 19
e 1 20
e 14 20
e 15 20
e 16 20
e 11 21
e 13 21
e 11 22
e 4 23
e 6 23
e 11 23
e 19 23
e 20 23
e 21 23
e 9 24
e 2 25
e 9 25
e 23 25
e 15 26
e 22 26
e 13 27
e 19 27
e 26 27
e 3 28
e 18 28
e 15 29
e 17 29
e 21 29
e 23 29
e 27 29
e 1 30
e 3 30
e 11 30
e 22 30
e 23 30
e 24 30
e 28 30
e 10 31
e 12 31
e 25 31
e 28 31
e 11 32
e 17 32
e 19 32
e 26 32
e 11 33
e 28 33
e 1 34
e 9 34
e 3 35
e 15 35
e 24 35
e 26 35
e 33 35
e 6 36
e 31 36
e 3 37
e 18 37
e 30 37
e 36 37
e 17 38
e 18 38
e 31 38
e 21 39
e 22 39
e 24 39
e 29 39
e 34 39
e 1 40
e 16 40
e 22 40
e 23 40
e 39 40
e 7 41
e 12 41
e 13 41
e 33 41
e 36 41
e 37 41
e 40 41
e 2 42
e 4 42
e 5 42
e 13 42
e 21 42
e 34 42
e 2 43
e 15 43
e 16 43
e 22 43
e 24 43
e 28 43
e 42 43
e 12 44
e 18 44
e 22 44
e 25 44
e 27 44
e 29 44
e 39 44
e 9 45
e 10 45
e 14 45
e 21 45
e 39 45
e 41 45
e 12 46
e 24 46
e 30 46
e 31 46
e 39 46
e 3 47
e 40 47
e 5 48
e 6 48
e 10 48
e 18 48
e 7 49
e 12 49
e 25 49
e 1 50
e 5 50
e 15 50
e 16 50
e 31 50
e 46 50
e 48 50
e 22 51
e 23 51
e 28 51
e 29 51
e 30 51
e 32 51
e 40 51
e 16 52
e 19 52
e 24 52
e 25 52
e 16 53
e 21 53
e 25 53
e 31 53
e 2 54
e 20 54
e 24 54
e 53 54
e 8 55
e 11 55
e 21 55
e 26 55
e 27 55
e 33 55
e 47 55
e 25 56
e 28 56
e 30 56
e 42 56
e 45 56
e 48 56
e 52 56
e 1 57
e 11 57
e 17 57
e 20 57
e 40 57
e 53 57
e 54 58
e 56 58
e 8 59
e 22 59
e 24 59
e 52 59
e 57 59
e 2 60
e 14 60
e 25 60
e 12 61
e 21 61
e 24 61
e 33 61
e 35 61
e 40 61
e 49 61
e 54 61
e 4 62
e 7 62
e 10 62
e 17 62
e 18 62
e 21 62
e 23 62
e 27 62
e 34 62
e 37 62
e 42 62
e 50 62
e 55 62
e 58 62
e 3 63
e 14 63
e 17 63
e 25 63
e 34 63
e 47 63
e 49 63
e 61 63
e 12 64
e 13 64
e 15 64
e 41 64
e 44 64
e 49 64
e 56 64
e 52 65
e 54 65
e 59 65
e 14 66
e 22 66
e 30 66
e 31 66
e 41 66
e 44 66
e 57 66
e 65 66
e 12 67
e 16 67
e 23 67
e 31 67
e 35 67
e 63 67
e 12 68
e 17 68
e 18 68
e 26 68
e 36 68
e 44 68
e 56 68
e 57 68
e 59 68
e 1 69
e 6 69
e 7 69
e 11 69
e 47 69
e 68 69
e 11 70
e 29 70
e 57 70
e 5 71
e 10 71
e 23 71
e 40 71
e 41 71
e 52 71
e 67 71
e 9 72
e 27 72
e 43 72
e 55 72
e 56 72
e 11 73
e 18 73
e 22 73
e 31 73
e 33 73
e 44 73
e 49 73
e 51 73
e 56 73
e 60 73
e 69 73
e 1 74
e 5 74
e 15 74
e 46 74
e 57 74
e 7 75
e 10 75
e 27 75
e 44 75
e 73 75
e 15 76
e 29 76
e 59 76
e 65 76
e 68 76
e 6 77
e 11 77
e 26 77
e 35 77
e 44 77
e 46 77
e 53 77
e 75 77
e 12 78
e 15 78
e 21 78
e 28 78
e 29 78
e 33 78
e 37 78
e 48 78
e 49 78
e 53 78
e 3 79
e 29 79
e 51 79
e 67 79
e 68 79
e 16 80
e 25 80
e 28 80
e 42 80
e 47 80
e 63 80
e 12 81
e 14 81
e 29 81
e 35 81
e 38 81
e 41 81
e 55 81
e 57 81
e 71 81
e 76 81
e 25 82
e 31 82
e 39 82
e 77 82
e 80 82
e 6 83
e 9 83
e 20 83
e 55 83
e 78 83
e 79 83
e 8 84
e 18 84
e 20 84
e 21 84
e 25 84
e 46 84
e 49 84
e 65 84
e 66 84
e 69 84
e 83 84
e 9 85
e 10 85
e 20 85
e 48 85
e 61 85
e 70 85
e 73 85
e 77 85
e 10 86
e 14 86
e 34 86
e 35 86
e 38 86
e 44 86
e 46 86
e 51 86
e 52 86
e 54 86
e 57 86
e 62 86
e 69 86
e 4 87
e 6 87
e 20 87
e 23 87
e 26 87
e 32 87
e 41 87
e 64 87
e 15 88
e 24 88
e 32 88
e 35 88
e 46 88
e 47 88
e 69 88
e 70 88
e 79 88
e 83 88
e 6 89
e 13 89
e 24 89
e 30 89
e 36 89
e 50 89
e 63 89
e 64 89
e 76 89
e 34 90
e 36 90
e 45 90
e 46 90
e 50 90
e 61 90
e 70 90
e 80 90
e 84 90
